n=10; m=6;


54  7   25  68  31  82  58  85  79  7
47  16  35  2   14  84  97  2   97  35
78  47  92  51  37  43  29  59  10  78
95  90  37  73  27  20  7   85  57  32
32  35  12  91  28  96  76  44  85  10
78  47  92  51  37  43  29  59  10  78
